; SMT 2
; Generated for Z3
(set-info :source "Generated by CBMC 5.8")
(set-option :produce-models true)


; location file quicksort/harness.c line 16 function main  4094
; find_symbols
(declare-fun |goto_symex::&92;guard#1| () Bool)

; location file quicksort/harness.c line 16 function main  713
; convert
(define-fun |B0| () Bool |goto_symex::&92;guard#1|)


; location file quicksort/harness.c line 17 function main  713
; convert
(define-fun |B1| () Bool |goto_symex::&92;guard#1|)


; location file quicksort/harness.c line 18 function main  713
; convert
(define-fun |B2| () Bool |goto_symex::&92;guard#1|)


; location file quicksort/harness.c line 18 function main  713
; convert
(define-fun |B3| () Bool |goto_symex::&92;guard#1|)


; location file quicksort/harness.c line 19 function main  713
; convert
(define-fun |B4| () Bool |goto_symex::&92;guard#1|)


; location file quicksort/harness.c line 19 function main  713
; convert
(define-fun |B5| () Bool |goto_symex::&92;guard#1|)


; location file quicksort/harness.c line 15 function main  713
; convert
(define-fun |B6| () Bool |goto_symex::&92;guard#1|)


; location file quicksort/harness.c line 15 function main  713
; convert
(define-fun |B7| () Bool |goto_symex::&92;guard#1|)


; location file quicksort/harness.c line 15 function main  713
; convert
(define-fun |B8| () Bool |goto_symex::&92;guard#1|)


; location file quicksort/harness.c line 16 function main  4094
; find_symbols
(declare-fun |goto_symex::&92;guard#2| () Bool)

; location file quicksort/harness.c line 16 function main  713
; convert
(define-fun |B9| () Bool (and |goto_symex::&92;guard#1| |goto_symex::&92;guard#2|))


; location file quicksort/harness.c line 17 function main  713
; convert
(define-fun |B10| () Bool (and |goto_symex::&92;guard#1| |goto_symex::&92;guard#2|))


; location file quicksort/harness.c line 18 function main  713
; convert
(define-fun |B11| () Bool (and |goto_symex::&92;guard#1| |goto_symex::&92;guard#2|))


; location file quicksort/harness.c line 18 function main  713
; convert
(define-fun |B12| () Bool (and |goto_symex::&92;guard#1| |goto_symex::&92;guard#2|))


; location file quicksort/harness.c line 19 function main  713
; convert
(define-fun |B13| () Bool (and |goto_symex::&92;guard#1| |goto_symex::&92;guard#2|))


; location file quicksort/harness.c line 19 function main  713
; convert
(define-fun |B14| () Bool (and |goto_symex::&92;guard#1| |goto_symex::&92;guard#2|))


; location file quicksort/harness.c line 15 function main  713
; convert
(define-fun |B15| () Bool (and |goto_symex::&92;guard#1| |goto_symex::&92;guard#2|))


; location file quicksort/harness.c line 15 function main  713
; convert
(define-fun |B16| () Bool (and |goto_symex::&92;guard#1| |goto_symex::&92;guard#2|))


; location file quicksort/harness.c line 15 function main  713
; convert
(define-fun |B17| () Bool (and |goto_symex::&92;guard#1| |goto_symex::&92;guard#2|))


; location file quicksort/harness.c line 28 function main  4094
; find_symbols
(declare-fun |goto_symex::&92;guard#3| () Bool)

; location file quicksort/harness.c line 28 function main  713
; convert
(define-fun |B18| () Bool |goto_symex::&92;guard#3|)


; location file quicksort/harness.c line 29 function main  713
; convert
(define-fun |B19| () Bool |goto_symex::&92;guard#3|)


; location file quicksort/harness.c line 30 function main  4094
; find_symbols
(declare-fun |goto_symex::&92;guard#4| () Bool)

; location file quicksort/harness.c line 30 function main  713
; convert
(define-fun |B20| () Bool (and |goto_symex::&92;guard#3| |goto_symex::&92;guard#4|))


; location file quicksort/harness.c line 32 function main  713
; convert
(define-fun |B21| () Bool |goto_symex::&92;guard#3|)


; location file quicksort/harness.c line 33 function main  4094
; find_symbols
(declare-fun |goto_symex::&92;guard#5| () Bool)

; location file quicksort/harness.c line 33 function main  713
; convert
(define-fun |B22| () Bool (and |goto_symex::&92;guard#3| |goto_symex::&92;guard#5|))


; location file quicksort/harness.c line 35 function main  713
; convert
(define-fun |B23| () Bool |goto_symex::&92;guard#3|)


; location file quicksort/harness.c line 36 function main  713
; convert
(define-fun |B24| () Bool |goto_symex::&92;guard#3|)


; location file quicksort/harness.c line 27 function main  713
; convert
(define-fun |B25| () Bool |goto_symex::&92;guard#3|)


; location file quicksort/harness.c line 27 function main  713
; convert
(define-fun |B26| () Bool |goto_symex::&92;guard#3|)


; location file quicksort/harness.c line 27 function main  713
; convert
(define-fun |B27| () Bool |goto_symex::&92;guard#3|)


; location file quicksort/harness.c line 28 function main  4094
; find_symbols
(declare-fun |goto_symex::&92;guard#6| () Bool)

; location file quicksort/harness.c line 28 function main  713
; convert
(define-fun |B28| () Bool (and |goto_symex::&92;guard#3| |goto_symex::&92;guard#6|))


; location file quicksort/harness.c line 29 function main  713
; convert
(define-fun |B29| () Bool (and |goto_symex::&92;guard#3| |goto_symex::&92;guard#6|))


; location file quicksort/harness.c line 30 function main  4094
; find_symbols
(declare-fun |goto_symex::&92;guard#7| () Bool)

; location file quicksort/harness.c line 30 function main  713
; convert
(define-fun |B30| () Bool (and |goto_symex::&92;guard#3| |goto_symex::&92;guard#6| |goto_symex::&92;guard#7|))


; location file quicksort/harness.c line 32 function main  713
; convert
(define-fun |B31| () Bool (and |goto_symex::&92;guard#3| |goto_symex::&92;guard#6|))


; location file quicksort/harness.c line 33 function main  4094
; find_symbols
(declare-fun |goto_symex::&92;guard#8| () Bool)

; location file quicksort/harness.c line 33 function main  713
; convert
(define-fun |B32| () Bool (and |goto_symex::&92;guard#3| |goto_symex::&92;guard#6| |goto_symex::&92;guard#8|))


; location file quicksort/harness.c line 35 function main  713
; convert
(define-fun |B33| () Bool (and |goto_symex::&92;guard#3| |goto_symex::&92;guard#6|))


; location file quicksort/harness.c line 36 function main  713
; convert
(define-fun |B34| () Bool (and |goto_symex::&92;guard#3| |goto_symex::&92;guard#6|))


; location file quicksort/harness.c line 27 function main  713
; convert
(define-fun |B35| () Bool (and |goto_symex::&92;guard#3| |goto_symex::&92;guard#6|))


; location file quicksort/harness.c line 27 function main  713
; convert
(define-fun |B36| () Bool (and |goto_symex::&92;guard#3| |goto_symex::&92;guard#6|))


; location file quicksort/harness.c line 27 function main  713
; convert
(define-fun |B37| () Bool (and |goto_symex::&92;guard#3| |goto_symex::&92;guard#6|))


; location file <built-in-additions> line 40  4025
; set_to true (equal)
(define-fun |__CPROVER_dead_object#1| () (_ BitVec 64) (_ bv0 64))


; location file <built-in-additions> line 39  4025
; set_to true (equal)
(define-fun |__CPROVER_deallocated#1| () (_ BitVec 64) (_ bv0 64))


; location file <built-in-additions> line 43  4025
; set_to true (equal)
(define-fun |__CPROVER_malloc_is_new_array#1| () Bool false)


; location file <built-in-additions> line 41  4025
; set_to true (equal)
(define-fun |__CPROVER_malloc_object#1| () (_ BitVec 64) (_ bv0 64))


; location file <built-in-additions> line 42  4025
; set_to true (equal)
(define-fun |__CPROVER_malloc_size#1| () (_ BitVec 64) (_ bv0 64))


; location file <built-in-additions> line 44  4025
; set_to true (equal)
(define-fun |__CPROVER_memory_leak#1| () (_ BitVec 64) (_ bv0 64))


; location file <built-in-additions> line 31  4025
; set_to true (equal)
(define-fun |__CPROVER_next_thread_id#1| () (_ BitVec 64) (_ bv0 64))


; location file <built-in-additions> line 99  4025
; set_to true (equal)
(define-fun |__CPROVER_pipe_count#1| () (_ BitVec 32) (_ bv0 32))


; location file <built-in-additions> line 66  4025
; set_to true (equal)
(define-fun |__CPROVER_rounding_mode!0#1| () (_ BitVec 32) (_ bv0 32))


; location file <built-in-additions> line 29  4025
; set_to true (equal)
(define-fun |__CPROVER_thread_id!0#1| () (_ BitVec 64) (_ bv0 64))


; location file <built-in-additions> line 30  4108
; the following is a substitute for lambda i. x
(declare-fun array_of.0 () (Array (_ BitVec 64) Bool))

; location file <built-in-additions> line 30  4025
; set_to true (equal)
(define-fun |__CPROVER_threads_exited#1| () (Array (_ BitVec 64) Bool) array_of.0)


; location file quicksort/harness.c line 6  4131
; the following is a substitute for an array constructor
(declare-fun array.1 () (Array (_ BitVec 64) (_ BitVec 32)))
(assert (= (select array.1 (_ bv0 64)) (_ bv0 32)))
(assert (= (select array.1 (_ bv1 64)) (_ bv0 32)))

; location file quicksort/harness.c line 6  4025
; set_to true (equal)
(define-fun |a#1| () (Array (_ BitVec 64) (_ BitVec 32)) array.1)


; location file quicksort/harness.c line 7  4025
; set_to true (equal)
(define-fun |ref#1| () (Array (_ BitVec 64) (_ BitVec 32)) array.1)


; location file quicksort/harness.c line 13 function main  4094
; find_symbols
(declare-fun |nondet_symex::nondet0| () (_ BitVec 32))

; location file quicksort/harness.c line 13 function main  4025
; set_to true (equal)
(define-fun |main::1::s!0@1#2| () (_ BitVec 32) |nondet_symex::nondet0|)


; location file quicksort/harness.c line 15 function main  4025
; set_to true (equal)
(define-fun |main::1::i!0@1#2| () (_ BitVec 32) (_ bv0 32))


; location file quicksort/harness.c line 15 function main  4045
; set_to true
(assert (= |goto_symex::&92;guard#1| (bvsge |main::1::s!0@1#2| (_ bv1 32))))


; location file quicksort/harness.c line 16 function main  4094
; find_symbols
(declare-fun |nondet_symex::nondet1| () (_ BitVec 32))

; location file quicksort/harness.c line 16 function main  4025
; set_to true (equal)
(define-fun |main::1::v!0@1#2| () (_ BitVec 32) |nondet_symex::nondet1|)


; location file quicksort/harness.c line 18 function main  4131
; the following is a substitute for an array constructor
(declare-fun array.2 () (Array (_ BitVec 64) (_ BitVec 32)))
(assert (= (select array.2 (_ bv0 64)) |main::1::v!0@1#2|))
(assert (= (select array.2 (_ bv1 64)) (_ bv0 32)))

; location file quicksort/harness.c line 18 function main  4025
; set_to true (equal)
(define-fun |ref#2| () (Array (_ BitVec 64) (_ BitVec 32)) array.2)


; location file quicksort/harness.c line 19 function main  4025
; set_to true (equal)
(define-fun |a#2| () (Array (_ BitVec 64) (_ BitVec 32)) array.2)


; location file quicksort/harness.c line 15 function main  4025
; set_to true (equal)
(define-fun |main::1::i!0@1#3| () (_ BitVec 32) (_ bv1 32))


; location file quicksort/harness.c line 15 function main  4045
; set_to true
(assert (= |goto_symex::&92;guard#2| (bvsge |main::1::s!0@1#2| (_ bv2 32))))


; location file quicksort/harness.c line 16 function main  4094
; find_symbols
(declare-fun |nondet_symex::nondet2| () (_ BitVec 32))

; location file quicksort/harness.c line 16 function main  4025
; set_to true (equal)
(define-fun |main::1::v!0@1#3| () (_ BitVec 32) |nondet_symex::nondet2|)


; location file quicksort/harness.c line 18 function main  4025
; set_to true (equal)
(define-fun |ref#3| () (Array (_ BitVec 64) (_ BitVec 32)) 
; location file quicksort/harness.c line 18 function main  3362
(store |ref#2| (_ bv1 64) |main::1::v!0@1#3|))


; location file quicksort/harness.c line 19 function main  4025
; set_to true (equal)
(define-fun |a#3| () (Array (_ BitVec 64) (_ BitVec 32)) 
; location file quicksort/harness.c line 19 function main  3362
(store |a#2| (_ bv1 64) |main::1::v!0@1#3|))


; location file quicksort/harness.c line 15 function main  4025
; set_to true (equal)
(define-fun |main::1::i!0@1#4| () (_ BitVec 32) (_ bv2 32))


; location file quicksort/harness.c line 21 function main  4025
; set_to true (equal)
(define-fun |main::1::v!0@1#4| () (_ BitVec 32) (ite |goto_symex::&92;guard#2| |main::1::v!0@1#3| |main::1::v!0@1#2|))


; location file quicksort/harness.c line 21 function main  4025
; set_to true (equal)
(define-fun |ref#4| () (Array (_ BitVec 64) (_ BitVec 32)) (ite |goto_symex::&92;guard#2| |ref#3| |ref#2|))


; location file quicksort/harness.c line 21 function main  4025
; set_to true (equal)
(define-fun |main::1::i!0@1#5| () (_ BitVec 32) (ite |goto_symex::&92;guard#2| (_ bv2 32) (_ bv1 32)))


; location file quicksort/harness.c line 21 function main  4025
; set_to true (equal)
(define-fun |a#4| () (Array (_ BitVec 64) (_ BitVec 32)) (ite |goto_symex::&92;guard#2| |a#3| |a#2|))


; location file quicksort/harness.c line 21 function main  4094
; find_symbols
(declare-fun |main::1::v!0@1#1| () (_ BitVec 32))

; location file quicksort/harness.c line 21 function main  4025
; set_to true (equal)
(define-fun |main::1::v!0@1#5| () (_ BitVec 32) (ite |goto_symex::&92;guard#1| |main::1::v!0@1#4| |main::1::v!0@1#1|))


; location file quicksort/harness.c line 21 function main  4025
; set_to true (equal)
(define-fun |ref#5| () (Array (_ BitVec 64) (_ BitVec 32)) (ite |goto_symex::&92;guard#1| |ref#4| array.1))


; location file quicksort/harness.c line 21 function main  4025
; set_to true (equal)
(define-fun |main::1::i!0@1#6| () (_ BitVec 32) (ite |goto_symex::&92;guard#1| |main::1::i!0@1#5| (_ bv0 32)))


; location file quicksort/harness.c line 21 function main  4025
; set_to true (equal)
(define-fun |a#5| () (Array (_ BitVec 64) (_ BitVec 32)) (ite |goto_symex::&92;guard#1| |a#4| array.1))


; location file quicksort/harness.c line 22 function main  4094
; find_symbols
(declare-fun |nondet_symex::nondet3| () (_ BitVec 32))

; location file quicksort/harness.c line 22 function main  4025
; set_to true (equal)
(define-fun |main::1::v!0@1#6| () (_ BitVec 32) |nondet_symex::nondet3|)


; location file quicksort/harness.c line 23 function main  4025
; set_to true (equal)
(define-fun |main::1::count!0@1#2| () (_ BitVec 32) (_ bv0 32))


; location file quicksort/harness.c line 24 function main  4025
; set_to true (equal)
(define-fun |main::1::qcount!0@1#2| () (_ BitVec 32) (_ bv0 32))


; location file quicksort/harness.c line 25 function main  4025
; set_to true (equal)
(define-fun |main::1::prev!0@1#2| () (_ BitVec 32) (select |a#5| (_ bv0 64)))


; location file quicksort/harness.c line 27 function main  4025
; set_to true (equal)
(define-fun |main::1::i!0@1#7| () (_ BitVec 32) (_ bv0 32))


; location file quicksort/harness.c line 27 function main  4045
; set_to true
(assert (= |goto_symex::&92;guard#3| (bvsge |main::1::s!0@1#2| (_ bv1 32))))


; location file quicksort/harness.c line 29 function main  4045
; set_to true
(assert (= |goto_symex::&92;guard#4| (= (select |ref#5| (_ bv0 64)) |main::1::v!0@1#6|)))


; location file quicksort/harness.c line 30 function main  4025
; set_to true (equal)
(define-fun |main::1::count!0@1#3| () (_ BitVec 32) (_ bv1 32))


; location file quicksort/harness.c line 32 function main  4025
; set_to true (equal)
(define-fun |main::1::count!0@1#4| () (_ BitVec 32) (ite |goto_symex::&92;guard#4| (_ bv1 32) (_ bv0 32)))


; location file quicksort/harness.c line 32 function main  4045
; set_to true
(assert (= |goto_symex::&92;guard#5| (= (select |a#5| (_ bv0 64)) |main::1::v!0@1#6|)))


; location file quicksort/harness.c line 33 function main  4025
; set_to true (equal)
(define-fun |main::1::qcount!0@1#3| () (_ BitVec 32) (_ bv1 32))


; location file quicksort/harness.c line 35 function main  4025
; set_to true (equal)
(define-fun |main::1::qcount!0@1#4| () (_ BitVec 32) (ite |goto_symex::&92;guard#5| (_ bv1 32) (_ bv0 32)))


; location file quicksort/harness.c line 36 function main  4025
; set_to true (equal)
(define-fun |main::1::prev!0@1#3| () (_ BitVec 32) (select |a#5| (_ bv0 64)))


; location file quicksort/harness.c line 27 function main  4025
; set_to true (equal)
(define-fun |main::1::i!0@1#8| () (_ BitVec 32) (_ bv1 32))


; location file quicksort/harness.c line 27 function main  4045
; set_to true
(assert (= |goto_symex::&92;guard#6| (bvsge |main::1::s!0@1#2| (_ bv2 32))))


; location file quicksort/harness.c line 29 function main  4045
; set_to true
(assert (= |goto_symex::&92;guard#7| (= (select |ref#5| (_ bv1 64)) |main::1::v!0@1#6|)))


; location file quicksort/harness.c line 30 function main  4025
; set_to true (equal)
(define-fun |main::1::count!0@1#5| () (_ BitVec 32) 
; location file quicksort/harness.c line 30 function main  2849
(bvadd (_ bv1 32) |main::1::count!0@1#4|))


; location file quicksort/harness.c line 32 function main  4025
; set_to true (equal)
(define-fun |main::1::count!0@1#6| () (_ BitVec 32) (ite |goto_symex::&92;guard#7| |main::1::count!0@1#5| |main::1::count!0@1#4|))


; location file quicksort/harness.c line 32 function main  4045
; set_to true
(assert (= |goto_symex::&92;guard#8| (= (select |a#5| (_ bv1 64)) |main::1::v!0@1#6|)))


; location file quicksort/harness.c line 33 function main  4025
; set_to true (equal)
(define-fun |main::1::qcount!0@1#5| () (_ BitVec 32) 
; location file quicksort/harness.c line 33 function main  2849
(bvadd (_ bv1 32) |main::1::qcount!0@1#4|))


; location file quicksort/harness.c line 35 function main  4025
; set_to true (equal)
(define-fun |main::1::qcount!0@1#6| () (_ BitVec 32) (ite |goto_symex::&92;guard#8| |main::1::qcount!0@1#5| |main::1::qcount!0@1#4|))


; location file quicksort/harness.c line 36 function main  4025
; set_to true (equal)
(define-fun |main::1::prev!0@1#4| () (_ BitVec 32) (select |a#5| (_ bv1 64)))


; location file quicksort/harness.c line 27 function main  4025
; set_to true (equal)
(define-fun |main::1::i!0@1#9| () (_ BitVec 32) (_ bv2 32))


; location file quicksort/harness.c line 38 function main  4025
; set_to true (equal)
(define-fun |main::1::prev!0@1#5| () (_ BitVec 32) (ite |goto_symex::&92;guard#6| |main::1::prev!0@1#4| |main::1::prev!0@1#3|))


; location file quicksort/harness.c line 38 function main  4025
; set_to true (equal)
(define-fun |main::1::count!0@1#7| () (_ BitVec 32) (ite |goto_symex::&92;guard#6| |main::1::count!0@1#6| |main::1::count!0@1#4|))


; location file quicksort/harness.c line 38 function main  4025
; set_to true (equal)
(define-fun |main::1::qcount!0@1#7| () (_ BitVec 32) (ite |goto_symex::&92;guard#6| |main::1::qcount!0@1#6| |main::1::qcount!0@1#4|))


; location file quicksort/harness.c line 38 function main  4025
; set_to true (equal)
(define-fun |main::1::i!0@1#10| () (_ BitVec 32) (ite |goto_symex::&92;guard#6| (_ bv2 32) (_ bv1 32)))


; location file quicksort/harness.c line 38 function main  4025
; set_to true (equal)
(define-fun |main::1::prev!0@1#6| () (_ BitVec 32) (ite |goto_symex::&92;guard#3| |main::1::prev!0@1#5| |main::1::prev!0@1#2|))


; location file quicksort/harness.c line 38 function main  4025
; set_to true (equal)
(define-fun |main::1::count!0@1#8| () (_ BitVec 32) (ite |goto_symex::&92;guard#3| |main::1::count!0@1#7| (_ bv0 32)))


; location file quicksort/harness.c line 38 function main  4025
; set_to true (equal)
(define-fun |main::1::qcount!0@1#8| () (_ BitVec 32) (ite |goto_symex::&92;guard#3| |main::1::qcount!0@1#7| (_ bv0 32)))


; location file quicksort/harness.c line 38 function main  4025
; set_to true (equal)
(define-fun |main::1::i!0@1#11| () (_ BitVec 32) (ite |goto_symex::&92;guard#3| |main::1::i!0@1#10| (_ bv0 32)))


; location file quicksort/harness.c line 12 function main  4094
; find_symbols
(declare-fun |main::1::i!0@1#1| () (_ BitVec 32))

; location file quicksort/harness.c line 12 function main  713
; convert
(define-fun |B38| () Bool (= |main::1::i!0@1#1| |main::1::i!0@1#1|))


; location file quicksort/harness.c line 12 function main  713
; convert
(define-fun |B39| () Bool (= |main::1::v!0@1#1| |main::1::v!0@1#1|))


; location file quicksort/harness.c line 12 function main  4094
; find_symbols
(declare-fun |main::1::count!0@1#1| () (_ BitVec 32))

; location file quicksort/harness.c line 12 function main  713
; convert
(define-fun |B40| () Bool (= |main::1::count!0@1#1| |main::1::count!0@1#1|))


; location file quicksort/harness.c line 12 function main  4094
; find_symbols
(declare-fun |main::1::qcount!0@1#1| () (_ BitVec 32))

; location file quicksort/harness.c line 12 function main  713
; convert
(define-fun |B41| () Bool (= |main::1::qcount!0@1#1| |main::1::qcount!0@1#1|))


; location file quicksort/harness.c line 12 function main  4094
; find_symbols
(declare-fun |main::1::prev!0@1#1| () (_ BitVec 32))

; location file quicksort/harness.c line 12 function main  713
; convert
(define-fun |B42| () Bool (= |main::1::prev!0@1#1| |main::1::prev!0@1#1|))


; location file quicksort/harness.c line 13 function main  4094
; find_symbols
(declare-fun |main::1::s!0@1#1| () (_ BitVec 32))

; location file quicksort/harness.c line 13 function main  713
; convert
(define-fun |B43| () Bool (= |main::1::s!0@1#1| |main::1::s!0@1#1|))


; location file quicksort/harness.c line 14 function main  713
; convert
(define-fun |B44| () Bool (and (bvsge |main::1::s!0@1#2| (_ bv1 32)) (not (bvsge |main::1::s!0@1#2| (_ bv3 32)))))


; location file quicksort/harness.c line 15 function main  713
; convert
(define-fun |B45| () Bool (not (and |goto_symex::&92;guard#1| |goto_symex::&92;guard#2|)))


; location file quicksort/harness.c line 27 function main  713
; convert
(define-fun |B46| () Bool (not (and |goto_symex::&92;guard#3| |goto_symex::&92;guard#6|)))


; location file quicksort/harness.c line 35 function main  713
; convert
(define-fun |B47| () Bool (=> (and true |B44| |B45|) (=> |goto_symex::&92;guard#3| (bvsge (select |a#5| (_ bv0 64)) |main::1::prev!0@1#2|))))


; location file quicksort/harness.c line 35 function main  713
; convert
(define-fun |B48| () Bool (=> (and true |B44| |B45|) (=> (and |goto_symex::&92;guard#3| |goto_symex::&92;guard#6|) (bvsge (select |a#5| (_ bv1 64)) |main::1::prev!0@1#3|))))


; location file quicksort/harness.c line 40 function main  713
; convert
(define-fun |B49| () Bool (=> (and true |B44| |B45| |B46|) (= |main::1::count!0@1#8| |main::1::qcount!0@1#8|)))


; location   4045
; set_to true
(assert (or (not |B47|) (not |B48|) (not |B49|)))


; location file quicksort/harness.c line 15 function main  713
; convert
(define-fun |B50| () Bool (not (bvsge |main::1::s!0@1#2| (_ bv1 32))))


; location file quicksort/harness.c line 15 function main  713
; convert
(define-fun |B51| () Bool (not (bvsge |main::1::s!0@1#2| (_ bv2 32))))


; location file quicksort/harness.c line 27 function main  713
; convert
(define-fun |B52| () Bool (not (bvsge |main::1::s!0@1#2| (_ bv1 32))))


; location file quicksort/harness.c line 29 function main  713
; convert
(define-fun |B53| () Bool (not (= (select |ref#5| (_ bv0 64)) |main::1::v!0@1#6|)))


; location file quicksort/harness.c line 32 function main  713
; convert
(define-fun |B54| () Bool (not (= (select |a#5| (_ bv0 64)) |main::1::v!0@1#6|)))


; location file quicksort/harness.c line 27 function main  713
; convert
(define-fun |B55| () Bool (not (bvsge |main::1::s!0@1#2| (_ bv2 32))))


; location file quicksort/harness.c line 29 function main  713
; convert
(define-fun |B56| () Bool (not (= (select |ref#5| (_ bv1 64)) |main::1::v!0@1#6|)))


; location file quicksort/harness.c line 32 function main  713
; convert
(define-fun |B57| () Bool (not (= (select |a#5| (_ bv1 64)) |main::1::v!0@1#6|)))


; location file quicksort/harness.c line 17 function main  4094
; find_symbols
(declare-fun |symex::io::0| () (_ BitVec 32))

; location file quicksort/harness.c line 17 function main  4045
; set_to true
(assert (= |main::1::v!0@1#2| |symex::io::0|))


; location file quicksort/harness.c line 17 function main  4094
; find_symbols
(declare-fun |symex::io::1| () (_ BitVec 32))

; location file quicksort/harness.c line 17 function main  4045
; set_to true
(assert (= |main::1::v!0@1#3| |symex::io::1|))


; location file quicksort/harness.c line 26 function main  4094
; find_symbols
(declare-fun |symex::io::2| () (_ BitVec 32))

; location file quicksort/harness.c line 26 function main  4045
; set_to true
(assert (= |main::1::v!0@1#6| |symex::io::2|))


; location file quicksort/harness.c line 28 function main  4094
; find_symbols
(declare-fun |symex::io::3| () (_ BitVec 32))

; location file quicksort/harness.c line 28 function main  4045
; set_to true
(assert (= (select |a#5| (_ bv0 64)) |symex::io::3|))


; location file quicksort/harness.c line 28 function main  4094
; find_symbols
(declare-fun |symex::io::4| () (_ BitVec 32))

; location file quicksort/harness.c line 28 function main  4045
; set_to true
(assert (= (select |a#5| (_ bv1 64)) |symex::io::4|))


; location file quicksort/harness.c line 38 function main  4094
; find_symbols
(declare-fun |symex::io::5| () (_ BitVec 32))

; location file quicksort/harness.c line 38 function main  4045
; set_to true
(assert (= |main::1::count!0@1#8| |symex::io::5|))


; location file quicksort/harness.c line 39 function main  4094
; find_symbols
(declare-fun |symex::io::6| () (_ BitVec 32))

; location file quicksort/harness.c line 39 function main  4045
; set_to true
(assert (= |main::1::qcount!0@1#8| |symex::io::6|))


; location   713
; convert
(define-fun |B58| () Bool (and |B47| |B48|))


; location   4045
; set_to true
(assert (or (not |B58|) (not |B49|)))

(check-sat)

(get-value (|B0|))
(get-value (|B1|))
(get-value (|B10|))
(get-value (|B11|))
(get-value (|B12|))
(get-value (|B13|))
(get-value (|B14|))
(get-value (|B15|))
(get-value (|B16|))
(get-value (|B17|))
(get-value (|B18|))
(get-value (|B19|))
(get-value (|B2|))
(get-value (|B20|))
(get-value (|B21|))
(get-value (|B22|))
(get-value (|B23|))
(get-value (|B24|))
(get-value (|B25|))
(get-value (|B26|))
(get-value (|B27|))
(get-value (|B28|))
(get-value (|B29|))
(get-value (|B3|))
(get-value (|B30|))
(get-value (|B31|))
(get-value (|B32|))
(get-value (|B33|))
(get-value (|B34|))
(get-value (|B35|))
(get-value (|B36|))
(get-value (|B37|))
(get-value (|B38|))
(get-value (|B39|))
(get-value (|B4|))
(get-value (|B40|))
(get-value (|B41|))
(get-value (|B42|))
(get-value (|B43|))
(get-value (|B44|))
(get-value (|B45|))
(get-value (|B46|))
(get-value (|B47|))
(get-value (|B48|))
(get-value (|B49|))
(get-value (|B5|))
(get-value (|B50|))
(get-value (|B51|))
(get-value (|B52|))
(get-value (|B53|))
(get-value (|B54|))
(get-value (|B55|))
(get-value (|B56|))
(get-value (|B57|))
(get-value (|B58|))
(get-value (|B6|))
(get-value (|B7|))
(get-value (|B8|))
(get-value (|B9|))
(get-value (|__CPROVER_dead_object#1|))
(get-value (|__CPROVER_deallocated#1|))
(get-value (|__CPROVER_malloc_is_new_array#1|))
(get-value (|__CPROVER_malloc_object#1|))
(get-value (|__CPROVER_malloc_size#1|))
(get-value (|__CPROVER_memory_leak#1|))
(get-value (|__CPROVER_next_thread_id#1|))
(get-value (|__CPROVER_pipe_count#1|))
(get-value (|__CPROVER_rounding_mode!0#1|))
(get-value (|__CPROVER_thread_id!0#1|))
(get-value (|__CPROVER_threads_exited#1|))
(get-value (|a#1|))
(get-value (|a#2|))
(get-value (|a#3|))
(get-value (|a#4|))
(get-value (|a#5|))
(get-value (|goto_symex::&92;guard#1|))
(get-value (|goto_symex::&92;guard#2|))
(get-value (|goto_symex::&92;guard#3|))
(get-value (|goto_symex::&92;guard#4|))
(get-value (|goto_symex::&92;guard#5|))
(get-value (|goto_symex::&92;guard#6|))
(get-value (|goto_symex::&92;guard#7|))
(get-value (|goto_symex::&92;guard#8|))
(get-value (|main::1::count!0@1#1|))
(get-value (|main::1::count!0@1#2|))
(get-value (|main::1::count!0@1#3|))
(get-value (|main::1::count!0@1#4|))
(get-value (|main::1::count!0@1#5|))
(get-value (|main::1::count!0@1#6|))
(get-value (|main::1::count!0@1#7|))
(get-value (|main::1::count!0@1#8|))
(get-value (|main::1::i!0@1#1|))
(get-value (|main::1::i!0@1#10|))
(get-value (|main::1::i!0@1#11|))
(get-value (|main::1::i!0@1#2|))
(get-value (|main::1::i!0@1#3|))
(get-value (|main::1::i!0@1#4|))
(get-value (|main::1::i!0@1#5|))
(get-value (|main::1::i!0@1#6|))
(get-value (|main::1::i!0@1#7|))
(get-value (|main::1::i!0@1#8|))
(get-value (|main::1::i!0@1#9|))
(get-value (|main::1::prev!0@1#1|))
(get-value (|main::1::prev!0@1#2|))
(get-value (|main::1::prev!0@1#3|))
(get-value (|main::1::prev!0@1#4|))
(get-value (|main::1::prev!0@1#5|))
(get-value (|main::1::prev!0@1#6|))
(get-value (|main::1::qcount!0@1#1|))
(get-value (|main::1::qcount!0@1#2|))
(get-value (|main::1::qcount!0@1#3|))
(get-value (|main::1::qcount!0@1#4|))
(get-value (|main::1::qcount!0@1#5|))
(get-value (|main::1::qcount!0@1#6|))
(get-value (|main::1::qcount!0@1#7|))
(get-value (|main::1::qcount!0@1#8|))
(get-value (|main::1::s!0@1#1|))
(get-value (|main::1::s!0@1#2|))
(get-value (|main::1::v!0@1#1|))
(get-value (|main::1::v!0@1#2|))
(get-value (|main::1::v!0@1#3|))
(get-value (|main::1::v!0@1#4|))
(get-value (|main::1::v!0@1#5|))
(get-value (|main::1::v!0@1#6|))
(get-value (|nondet_symex::nondet0|))
(get-value (|nondet_symex::nondet1|))
(get-value (|nondet_symex::nondet2|))
(get-value (|nondet_symex::nondet3|))
(get-value (|ref#1|))
(get-value (|ref#2|))
(get-value (|ref#3|))
(get-value (|ref#4|))
(get-value (|ref#5|))
(get-value (|symex::io::0|))
(get-value (|symex::io::1|))
(get-value (|symex::io::2|))
(get-value (|symex::io::3|))
(get-value (|symex::io::4|))
(get-value (|symex::io::5|))
(get-value (|symex::io::6|))

(exit)
; end of SMT2 file
